*SENSE:Minimize
NAME          MODEL
ROWS
 N  OBJ
 L  C0000000
 L  C0000001
 G  C0000002
 L  C0000003
 G  C0000004
 L  C0000005
 G  C0000006
 L  C0000007
 G  C0000008
 L  C0000009
 G  C0000010
 L  C0000011
 G  C0000012
 L  C0000013
 G  C0000014
 L  C0000015
COLUMNS
    MARK      'MARKER'                 'INTORG'
    X0000001  C0000000   2.000000000000e+00
    X0000001  C0000001   3.000000000000e+03
    X0000001  C0000002   5.560000000000e+02
    X0000001  C0000003   5.560000000000e+02
    X0000001  C0000004   3.900000000000e+01
    X0000001  C0000005   3.900000000000e+01
    X0000001  C0000006   3.000000000000e+01
    X0000001  C0000007   3.000000000000e+01
    X0000001  C0000008   1.470000000000e+02
    X0000001  C0000009   1.470000000000e+02
    X0000001  C0000010   1.000000000000e+01
    X0000001  C0000011   1.000000000000e+01
    X0000001  C0000012   2.210000000000e+02
    X0000001  C0000013   2.210000000000e+02
    X0000001  C0000014   2.400000000000e+00
    X0000001  C0000015   2.400000000000e+00
    MARK      'MARKER'                 'INTEND'
    MARK      'MARKER'                 'INTORG'
    X0000001  C0000000   2.000000000000e+00
    X0000001  C0000001   3.000000000000e+03
    X0000001  C0000002   5.560000000000e+02
    X0000001  C0000003   5.560000000000e+02
    X0000001  C0000004   3.900000000000e+01
    X0000001  C0000005   3.900000000000e+01
    X0000001  C0000006   3.000000000000e+01
    X0000001  C0000007   3.000000000000e+01
    X0000001  C0000008   1.470000000000e+02
    X0000001  C0000009   1.470000000000e+02
    X0000001  C0000010   1.000000000000e+01
    X0000001  C0000011   1.000000000000e+01
    X0000001  C0000012   2.210000000000e+02
    X0000001  C0000013   2.210000000000e+02
    X0000001  C0000014   2.400000000000e+00
    X0000001  C0000015   2.400000000000e+00
    X0000001  OBJ        3.600000000000e+02
    MARK      'MARKER'                 'INTEND'
    MARK      'MARKER'                 'INTORG'
    X0000003  C0000000   3.000000000000e+00
    X0000003  C0000001   3.500000000000e+03
    X0000003  C0000002   5.560000000000e+02
    X0000003  C0000003   5.560000000000e+02
    X0000003  C0000004   4.600000000000e+01
    X0000003  C0000005   4.600000000000e+01
    X0000003  C0000006   2.600000000000e+01
    X0000003  C0000007   2.600000000000e+01
    X0000003  C0000008   9.700000000000e+01
    X0000003  C0000009   9.700000000000e+01
    X0000003  C0000010   9.000000000000e+00
    X0000003  C0000011   9.000000000000e+00
    X0000003  C0000012   1.420000000000e+02
    X0000003  C0000013   1.420000000000e+02
    X0000003  C0000014   2.400000000000e+00
    X0000003  C0000015   2.400000000000e+00
    MARK      'MARKER'                 'INTEND'
    MARK      'MARKER'                 'INTORG'
    X0000003  C0000000   3.000000000000e+00
    X0000003  C0000001   3.500000000000e+03
    X0000003  C0000002   5.560000000000e+02
    X0000003  C0000003   5.560000000000e+02
    X0000003  C0000004   4.600000000000e+01
    X0000003  C0000005   4.600000000000e+01
    X0000003  C0000006   2.600000000000e+01
    X0000003  C0000007   2.600000000000e+01
    X0000003  C0000008   9.700000000000e+01
    X0000003  C0000009   9.700000000000e+01
    X0000003  C0000010   9.000000000000e+00
    X0000003  C0000011   9.000000000000e+00
    X0000003  C0000012   1.420000000000e+02
    X0000003  C0000013   1.420000000000e+02
    X0000003  C0000014   2.400000000000e+00
    X0000003  C0000015   2.400000000000e+00
    X0000003  OBJ        3.200000000000e+02
    MARK      'MARKER'                 'INTEND'
    MARK      'MARKER'                 'INTORG'
    X0000005  C0000000   4.000000000000e+00
    X0000005  C0000001   5.100000000000e+03
    X0000005  C0000002   3.560000000000e+02
    X0000005  C0000003   3.560000000000e+02
    X0000005  C0000004   4.200000000000e+01
    X0000005  C0000005   4.200000000000e+01
    X0000005  C0000006   1.400000000000e+01
    X0000005  C0000007   1.400000000000e+01
    X0000005  C0000008   2.800000000000e+01
    X0000005  C0000009   2.800000000000e+01
    X0000005  C0000010   1.000000000000e+00
    X0000005  C0000011   1.000000000000e+00
    X0000005  C0000012   7.600000000000e+01
    X0000005  C0000013   7.600000000000e+01
    X0000005  C0000014   7.000000000000e-01
    X0000005  C0000015   7.000000000000e-01
    MARK      'MARKER'                 'INTEND'
    MARK      'MARKER'                 'INTORG'
    X0000005  C0000000   4.000000000000e+00
    X0000005  C0000001   5.100000000000e+03
    X0000005  C0000002   3.560000000000e+02
    X0000005  C0000003   3.560000000000e+02
    X0000005  C0000004   4.200000000000e+01
    X0000005  C0000005   4.200000000000e+01
    X0000005  C0000006   1.400000000000e+01
    X0000005  C0000007   1.400000000000e+01
    X0000005  C0000008   2.800000000000e+01
    X0000005  C0000009   2.800000000000e+01
    X0000005  C0000010   1.000000000000e+00
    X0000005  C0000011   1.000000000000e+00
    X0000005  C0000012   7.600000000000e+01
    X0000005  C0000013   7.600000000000e+01
    X0000005  C0000014   7.000000000000e-01
    X0000005  C0000015   7.000000000000e-01
    X0000005  OBJ        2.700000000000e+02
    MARK      'MARKER'                 'INTEND'
    MARK      'MARKER'                 'INTORG'
    X0000007  C0000000   5.000000000000e+00
    X0000007  C0000001   7.200000000000e+03
    X0000007  C0000002   4.310000000000e+02
    X0000007  C0000003   4.310000000000e+02
    X0000007  C0000004   4.500000000000e+01
    X0000007  C0000005   4.500000000000e+01
    X0000007  C0000006   2.000000000000e+01
    X0000007  C0000007   2.000000000000e+01
    X0000007  C0000008   9.000000000000e+00
    X0000007  C0000009   9.000000000000e+00
    X0000007  C0000010   2.000000000000e+00
    X0000007  C0000011   2.000000000000e+00
    X0000007  C0000012   3.700000000000e+01
    X0000007  C0000013   3.700000000000e+01
    X0000007  C0000014   9.000000000000e-01
    X0000007  C0000015   9.000000000000e-01
    MARK      'MARKER'                 'INTEND'
    MARK      'MARKER'                 'INTORG'
    X0000007  C0000000   5.000000000000e+00
    X0000007  C0000001   7.200000000000e+03
    X0000007  C0000002   4.310000000000e+02
    X0000007  C0000003   4.310000000000e+02
    X0000007  C0000004   4.500000000000e+01
    X0000007  C0000005   4.500000000000e+01
    X0000007  C0000006   2.000000000000e+01
    X0000007  C0000007   2.000000000000e+01
    X0000007  C0000008   9.000000000000e+00
    X0000007  C0000009   9.000000000000e+00
    X0000007  C0000010   2.000000000000e+00
    X0000007  C0000011   2.000000000000e+00
    X0000007  C0000012   3.700000000000e+01
    X0000007  C0000013   3.700000000000e+01
    X0000007  C0000014   9.000000000000e-01
    X0000007  C0000015   9.000000000000e-01
    X0000007  OBJ        2.900000000000e+02
    MARK      'MARKER'                 'INTEND'
    MARK      'MARKER'                 'INTORG'
    X0000008  C0000002   2.490000000000e+02
    X0000008  C0000003   2.490000000000e+02
    X0000008  C0000004   3.000000000000e+01
    X0000008  C0000005   3.000000000000e+01
    X0000008  C0000006   3.000000000000e+00
    X0000008  C0000007   3.000000000000e+00
    X0000008  C0000010   5.000000000000e+00
    X0000008  C0000011   5.000000000000e+00
    X0000008  C0000012   7.000000000000e+00
    X0000008  C0000013   7.000000000000e+00
    X0000008  C0000014   6.000000000000e-01
    X0000008  C0000015   6.000000000000e-01
    X0000008  OBJ        1.900000000000e+02
    MARK      'MARKER'                 'INTEND'
    MARK      'MARKER'                 'INTORG'
    X0000009  C0000002   1.380000000000e+02
    X0000009  C0000003   1.380000000000e+02
    X0000009  C0000004   1.000000000000e+01
    X0000009  C0000005   1.000000000000e+01
    X0000009  C0000006   7.000000000000e+00
    X0000009  C0000007   7.000000000000e+00
    X0000009  C0000008   8.000000000000e+01
    X0000009  C0000009   8.000000000000e+01
    X0000009  C0000010   2.000000000000e+00
    X0000009  C0000011   2.000000000000e+00
    X0000009  C0000012   2.270000000000e+02
    X0000009  C0000013   2.270000000000e+02
    X0000009  OBJ        1.700000000000e+02
    MARK      'MARKER'                 'INTEND'
    MARK      'MARKER'                 'INTORG'
    X0000010  C0000002   6.900000000000e+01
    X0000010  C0000003   6.900000000000e+01
    X0000010  C0000004   1.700000000000e+01
    X0000010  C0000005   1.700000000000e+01
    X0000010  C0000006   1.000000000000e+00
    X0000010  C0000007   1.000000000000e+00
    X0000010  C0000008   7.500000000000e+02
    X0000010  C0000009   7.500000000000e+02
    X0000010  C0000010   2.000000000000e+00
    X0000010  C0000011   2.000000000000e+00
    X0000010  C0000012   1.800000000000e+01
    X0000010  C0000013   1.800000000000e+01
    X0000010  OBJ        1.000000000000e+02
    MARK      'MARKER'                 'INTEND'
RHS
    RHS       C0000000   7.000000000000e+00
    RHS       C0000001   1.000000000000e+04
    RHS       C0000002   3.000000000000e+03
    RHS       C0000003   2.000000000000e+03
    RHS       C0000004   3.750000000000e+02
    RHS       C0000005   3.000000000000e+02
    RHS       C0000006   6.000000000000e+01
    RHS       C0000007   5.000000000000e+01
    RHS       C0000008   7.500000000000e+02
    RHS       C0000009   5.000000000000e+02
    RHS       C0000010   1.000000000000e+02
    RHS       C0000011   8.500000000000e+01
    RHS       C0000012   9.000000000000e+02
    RHS       C0000013   6.600000000000e+02
    RHS       C0000014   7.500000000000e+00
    RHS       C0000015   6.000000000000e+00
BOUNDS
 BV BND       X0000001
 UP BND       X0000001   1.000000000000e+100
 BV BND       X0000003
 UP BND       X0000003   1.000000000000e+100
 BV BND       X0000005
 UP BND       X0000005   1.000000000000e+100
 BV BND       X0000007
 UP BND       X0000007   1.000000000000e+100
 UP BND       X0000008   1.000000000000e+100
 UP BND       X0000009   1.000000000000e+100
 UP BND       X0000010   1.000000000000e+100
ENDATA
